
param c	:= 
1	5
2	3
3	8
4	5
5	1
6	3
7	7
8	4
9	6
10	3	;

param beta :=
1	1.2
2	1
3	.9
4	.6
5	1.5
6	1
7	.7
8	1.1
9	.95
10	.75	;

param  initval
:	1	2	3	4 :=
1	1       10	1.0	7
2	1       10	1.2	4
3	1       10	1.4	3
4	1       10	1.6	1
5	1       10	1.8	18
6	1       10	2.1	4
7	1       10	2.3	1
8	1       10	2.5	6
9	1       10	2.7	3
10	1	10	2.9	2	;

